3 
4 
5  11 26 41 56 
6  11 26 41 56 
7  11 26 41 56 
8  11 26 41 56 
9  11 26 40 55 
10  10 25 40 55 
11  10 25 40 55 
12  10 25 40 54 
13  09 24 39 54 
14  09 24 39 56 
15  11 26 41 56 
16  11 26 41 56 
17  11 26 41 56 
18  11 26 41 56 
19  11 26 41 56 
20  11 26 41 56 
21  11 26 41 56 
22  13 28 43 
23  01 
0 
